NAME : mcpfd
COMMENT : file for mcpfd test
TYPE : ATSP
DIMENSION : 20
EDGE_WEIGHT_TYPE : EXPLICIT
EDGE_WEIGHT_FORMAT : FULL_MATRIX
EDGE_WEIGHT_SECTION
999999 999999 999999 999999 999999 16 23 22 19 14 10 19 3 18 20 6 21 25 18 16 
999999 999999 999999 999999 999999 28 37 36 33 6 20 33 19 24 38 14 39 43 34 12 
999999 999999 999999 999999 999999 39 48 47 44 13 31 44 24 17 35 23 36 40 25 23 
999999 999999 999999 999999 999999 41 48 47 44 21 33 44 22 9 29 25 28 30 15 31 
999999 999999 999999 999999 999999 38 47 46 43 12 30 43 21 14 32 22 33 37 24 22 
999999 999999 999999 999999 999999 1 10 13 8 25 7 10 18 33 31 15 32 36 31 15 
999999 999999 999999 999999 999999 11 0 5 4 35 17 4 26 41 27 25 28 30 35 25 
999999 999999 999999 999999 999999 14 5 0 5 34 16 5 25 40 22 24 23 25 34 26 
999999 999999 999999 999999 999999 9 4 5 0 31 13 2 22 37 25 21 26 30 31 21 
999999 999999 999999 999999 999999 26 35 34 31 0 18 31 13 18 32 10 33 37 28 10 
999999 999999 999999 999999 999999 8 17 16 13 18 0 13 11 26 28 8 29 33 26 10 
999999 999999 999999 999999 999999 11 4 5 2 31 13 0 22 37 23 21 24 28 31 23 
999999 999999 999999 999999 999999 19 26 25 22 13 11 22 0 15 19 7 20 24 17 17 
999999 999999 999999 999999 999999 34 41 40 37 18 26 37 15 0 22 18 21 23 10 24 
999999 999999 999999 999999 999999 32 27 22 25 32 28 23 19 22 0 26 1 5 16 36 
0 0 0 0 0 999999 999999 999999 999999 999999 999999 999999 999999 999999 999999 999999 999999 999999 999999 999999 
0 0 0 0 0 999999 999999 999999 999999 999999 999999 999999 999999 999999 999999 999999 999999 999999 999999 999999 
0 0 0 0 0 999999 999999 999999 999999 999999 999999 999999 999999 999999 999999 999999 999999 999999 999999 999999 
0 0 0 0 0 999999 999999 999999 999999 999999 999999 999999 999999 999999 999999 999999 999999 999999 999999 999999 
0 0 0 0 0 999999 999999 999999 999999 999999 999999 999999 999999 999999 999999 999999 999999 999999 999999 999999 
